SAT
1 -2 -3 -55 4 -5 -6 -37 7 -8 -9 -34 10 -11 -12 -43 13 -14 -15 -16 17 -18 19 -20 -21 -40 22 -23 -24 -52 25 -26 -27 -28 29 -30 31 -32 -33 -46 35 -36 38 -39 41 -42 44 -45 47 -48 49 -50 -51 -58 53 -54 56 -57 59 -60 0